(set-info :smt-lib-version 2.6)
(set-info :category "crafted")
(set-logic QF_FF)
(define-sort FF0 () (_ FiniteField 52435875175126190479447740508185965837690552500527637822603658699938581184513))
(declare-fun return_n10_alt () FF0)
(declare-fun mul_n28_alt () FF0)
(declare-fun is_zero_n30_alt () FF0)
(declare-fun is_zero_n41_alt () FF0)
(declare-fun is_zero_n20_alt () FF0)
(declare-fun is_zero_n39_alt () FF0)
(declare-fun mul_n42_alt () FF0)
(declare-fun is_zero_inv_n43_alt () FF0)
(declare-fun h_n9_alt () FF0)
(declare-fun is_zero_n32_alt () FF0)
(declare-fun mul_n27_alt () FF0)
(declare-fun mul_n33_alt () FF0)
(declare-fun mul_n24_alt () FF0)
(declare-fun k_n3_alt () FF0)
(declare-fun is_zero_inv_n40_alt () FF0)
(declare-fun mul_n35_alt () FF0)
(declare-fun d_n6_alt () FF0)
(declare-fun mul_n15_alt () FF0)
(declare-fun mul_n18_alt () FF0)
(declare-fun mul_n21_alt () FF0)
(declare-fun mul_n36_alt () FF0)
(declare-fun e_n4_alt () FF0)
(declare-fun i_n7_alt () FF0)
(declare-fun mul_n16_alt () FF0)
(declare-fun mul_n25_alt () FF0)
(declare-fun f_n2_alt () FF0)
(declare-fun j_n5_alt () FF0)
(declare-fun mul_n37_alt () FF0)
(declare-fun b_n11_alt () FF0)
(declare-fun mul_n17_alt () FF0)
(declare-fun mul_n26_alt () FF0)
(declare-fun is_zero_inv_n38_alt () FF0)
(declare-fun a_n12_alt () FF0)
(declare-fun g_n0_alt () FF0)
(declare-fun mul_n34_alt () FF0)
(declare-fun mul_n22_alt () FF0)
(declare-fun c_n8_alt () FF0)
(declare-fun is_zero_inv_n31_alt () FF0)
(declare-fun is_zero_inv_n29_alt () FF0)
(declare-fun is_zero_n14_alt () FF0)
(declare-fun mul_n23_alt () FF0)
(declare-fun is_zero_inv_n19_alt () FF0)
(declare-fun l_n1_alt () FF0)
(declare-fun is_zero_inv_n13_alt () FF0)
(declare-fun return_n10 () FF0)
(declare-fun mul_n28 () FF0)
(declare-fun is_zero_n30 () FF0)
(declare-fun is_zero_n41 () FF0)
(declare-fun is_zero_n20 () FF0)
(declare-fun is_zero_n39 () FF0)
(declare-fun mul_n42 () FF0)
(declare-fun is_zero_inv_n43 () FF0)
(declare-fun h_n9 () FF0)
(declare-fun is_zero_n32 () FF0)
(declare-fun mul_n27 () FF0)
(declare-fun mul_n33 () FF0)
(declare-fun mul_n24 () FF0)
(declare-fun k_n3 () FF0)
(declare-fun is_zero_inv_n40 () FF0)
(declare-fun mul_n35 () FF0)
(declare-fun d_n6 () FF0)
(declare-fun mul_n15 () FF0)
(declare-fun mul_n18 () FF0)
(declare-fun mul_n21 () FF0)
(declare-fun mul_n36 () FF0)
(declare-fun e_n4 () FF0)
(declare-fun i_n7 () FF0)
(declare-fun mul_n16 () FF0)
(declare-fun mul_n25 () FF0)
(declare-fun f_n2 () FF0)
(declare-fun j_n5 () FF0)
(declare-fun mul_n37 () FF0)
(declare-fun b_n11 () FF0)
(declare-fun mul_n17 () FF0)
(declare-fun mul_n26 () FF0)
(declare-fun is_zero_inv_n38 () FF0)
(declare-fun a_n12 () FF0)
(declare-fun g_n0 () FF0)
(declare-fun mul_n34 () FF0)
(declare-fun mul_n22 () FF0)
(declare-fun c_n8 () FF0)
(declare-fun is_zero_inv_n31 () FF0)
(declare-fun is_zero_inv_n29 () FF0)
(declare-fun is_zero_n14 () FF0)
(declare-fun mul_n23 () FF0)
(declare-fun is_zero_inv_n19 () FF0)
(declare-fun l_n1 () FF0)
(declare-fun is_zero_inv_n13 () FF0)
(assert 
  (let ((let0 return_n10_alt))
  (let ((let1 (as ff3 FF0)))
  (let ((let2 (as ff52435875175126190479447740508185965837690552500527637822603658699938581184512 FF0)))
  (let ((let3 mul_n28_alt))
  (let ((let4 (ff.mul let3 let2)))
  (let ((let5 is_zero_n30_alt))
  (let ((let6 (ff.mul let5 let2)))
  (let ((let7 is_zero_n41_alt))
  (let ((let8 is_zero_n20_alt))
  (let ((let9 (ff.mul let8 let2)))
  (let ((let10 is_zero_n39_alt))
  (let ((let11 mul_n42_alt))
  (let ((let12 (ff.add let11 let10 let9 let7 let6 let4 let1)))
  (let ((let13 is_zero_inv_n43_alt))
  (let ((let14 (ff.mul let13 let12)))
  (let ((let15 (= let14 let0)))
  (let ((let16 h_n9_alt))
  (let ((let17 (ff.mul let16 let2)))
  (let ((let18 (ff.add let8 let17)))
  (let ((let19 is_zero_n32_alt))
  (let ((let20 (ff.mul let19 let18)))
  (let ((let21 (= let20 let11)))
  (let ((let22 (as ff0 FF0)))
  (let ((let23 mul_n27_alt))
  (let ((let24 (ff.mul let23 let2)))
  (let ((let25 mul_n33_alt))
  (let ((let26 mul_n24_alt))
  (let ((let27 k_n3_alt))
  (let ((let28 (ff.mul let27 let2)))
  (let ((let29 (ff.add let28 let26 let17 let25 let24 let1)))
  (let ((let30 (ff.mul let7 let29)))
  (let ((let31 (= let30 let22)))
  (let ((let32 (as ff1 FF0)))
  (let ((let33 (ff.mul let7 let2)))
  (let ((let34 (ff.add let33 let32)))
  (let ((let35 is_zero_inv_n40_alt))
  (let ((let36 (ff.mul let35 let29)))
  (let ((let37 (= let36 let34)))
  (let ((let38 (as ff7 FF0)))
  (let ((let39 mul_n35_alt))
  (let ((let40 (ff.mul let39 let2)))
  (let ((let41 d_n6_alt))
  (let ((let42 (ff.mul let41 let2)))
  (let ((let43 (as ff52435875175126190479447740508185965837690552500527637822603658699938581184511 FF0)))
  (let ((let44 mul_n15_alt))
  (let ((let45 (ff.mul let44 let43)))
  (let ((let46 mul_n18_alt))
  (let ((let47 mul_n21_alt))
  (let ((let48 (ff.mul let47 let2)))
  (let ((let49 mul_n36_alt))
  (let ((let50 (ff.mul let49 let2)))
  (let ((let51 e_n4_alt))
  (let ((let52 (ff.mul let51 let2)))
  (let ((let53 i_n7_alt))
  (let ((let54 (ff.mul let53 let43)))
  (let ((let55 (as ff2 FF0)))
  (let ((let56 mul_n16_alt))
  (let ((let57 (ff.mul let56 let55)))
  (let ((let58 mul_n25_alt))
  (let ((let59 f_n2_alt))
  (let ((let60 j_n5_alt))
  (let ((let61 (ff.mul let60 let43)))
  (let ((let62 mul_n37_alt))
  (let ((let63 (ff.mul let62 let2)))
  (let ((let64 b_n11_alt))
  (let ((let65 (ff.mul let64 let2)))
  (let ((let66 mul_n17_alt))
  (let ((let67 (ff.mul let66 let2)))
  (let ((let68 mul_n26_alt))
  (let ((let69 (ff.mul let68 let2)))
  (let ((let70 (ff.add let69 let8 let67 let65 let63 let61 let59 let58 let57 let54 let52 let50 let26 let48 let46 let45 let17 let42 let40 let38)))
  (let ((let71 (ff.mul let10 let70)))
  (let ((let72 (= let71 let22)))
  (let ((let73 (ff.mul let10 let2)))
  (let ((let74 (ff.add let73 let32)))
  (let ((let75 is_zero_inv_n38_alt))
  (let ((let76 (ff.mul let75 let70)))
  (let ((let77 (= let76 let74)))
  (let ((let78 a_n12_alt))
  (let ((let79 (ff.mul let78 let43)))
  (let ((let80 (ff.mul let59 let2)))
  (let ((let81 (ff.add let69 let52 let26 let47 let80 let46 let79 let58 let42 let32)))
  (let ((let82 g_n0_alt))
  (let ((let83 (ff.mul let82 let81)))
  (let ((let84 (= let83 let62)))
  (let ((let85 (ff.add let65 let32)))
  (let ((let86 (ff.mul let16 let43)))
  (let ((let87 (ff.add let86 let55)))
  (let ((let88 (ff.mul let87 let85)))
  (let ((let89 (= let88 let49)))
  (let ((let90 mul_n34_alt))
  (let ((let91 (ff.add let25 let90 let53 let2)))
  (let ((let92 (ff.add let57 let61 let45 let54 let55)))
  (let ((let93 (ff.mul let92 let91)))
  (let ((let94 (= let93 let39)))
  (let ((let95 (ff.mul let25 let2)))
  (let ((let96 (ff.add let95 let32)))
  (let ((let97 (ff.add let54 let55)))
  (let ((let98 (ff.mul let97 let96)))
  (let ((let99 (= let98 let90)))
  (let ((let100 (ff.mul let46 let2)))
  (let ((let101 (ff.add let51 let100 let41)))
  (let ((let102 (ff.mul let101 let19)))
  (let ((let103 (= let102 let25)))
  (let ((let104 mul_n22_alt))
  (let ((let105 c_n8_alt))
  (let ((let106 (ff.mul let64 let43)))
  (let ((let107 (ff.add let106 let105 let60 let48 let44 let59 let78 let104 let17 let55)))
  (let ((let108 (ff.mul let19 let107)))
  (let ((let109 (= let108 let22)))
  (let ((let110 (ff.mul let19 let2)))
  (let ((let111 (ff.add let110 let32)))
  (let ((let112 is_zero_inv_n31_alt))
  (let ((let113 (ff.mul let112 let107)))
  (let ((let114 (= let113 let111)))
  (let ((let115 (ff.add let59 let78 let66 let27)))
  (let ((let116 (ff.mul let5 let115)))
  (let ((let117 (= let116 let22)))
  (let ((let118 (ff.add let6 let32)))
  (let ((let119 is_zero_inv_n29_alt))
  (let ((let120 (ff.mul let119 let115)))
  (let ((let121 (= let120 let118)))
  (let ((let122 (ff.mul let23 let66)))
  (let ((let123 (= let122 let3)))
  (let ((let124 (ff.mul let58 let2)))
  (let ((let125 (ff.mul let26 let2)))
  (let ((let126 (ff.add let125 let68 let100 let78 let124 let51 let41)))
  (let ((let127 is_zero_n14_alt))
  (let ((let128 (ff.mul let127 let2)))
  (let ((let129 (ff.add let128 let32)))
  (let ((let130 (ff.mul let129 let126)))
  (let ((let131 (= let130 let23)))
  (let ((let132 (ff.add let52 let46 let42 let32)))
  (let ((let133 (ff.mul let58 let55)))
  (let ((let134 (ff.mul let26 let55)))
  (let ((let135 (ff.add let134 let133 let79)))
  (let ((let136 (ff.mul let135 let132)))
  (let ((let137 (= let136 let68)))
  (let ((let138 (ff.mul let26 let43)))
  (let ((let139 (ff.add let138 let55)))
  (let ((let140 (ff.mul let139 let78)))
  (let ((let141 (= let140 let58)))
  (let ((let142 mul_n23_alt))
  (let ((let143 (ff.mul let142 let8)))
  (let ((let144 (= let143 let26)))
  (let ((let145 (ff.mul let104 let2)))
  (let ((let146 (ff.mul let78 let2)))
  (let ((let147 (ff.add let47 let80 let146 let145 let64 let32)))
  (let ((let148 (ff.mul let147 let16)))
  (let ((let149 (= let148 let142)))
  (let ((let150 (ff.add let146 let47 let80 let32)))
  (let ((let151 (ff.mul let64 let55)))
  (let ((let152 (ff.mul let151 let150)))
  (let ((let153 (= let152 let104)))
  (let ((let154 (ff.mul let78 let55)))
  (let ((let155 (ff.mul let154 let59)))
  (let ((let156 (= let155 let47)))
  (let ((let157 (ff.mul let41 let55)))
  (let ((let158 (ff.add let82 let100 let51 let157 let27)))
  (let ((let159 (ff.mul let8 let158)))
  (let ((let160 (= let159 let22)))
  (let ((let161 (ff.add let9 let32)))
  (let ((let162 is_zero_inv_n19_alt))
  (let ((let163 (ff.mul let162 let158)))
  (let ((let164 (= let163 let161)))
  (let ((let165 (ff.mul let51 let55)))
  (let ((let166 (ff.mul let165 let41)))
  (let ((let167 (= let166 let46)))
  (let ((let168 (ff.mul let56 let2)))
  (let ((let169 (ff.add let168 let60 let44 let53)))
  (let ((let170 (ff.mul let169 let85)))
  (let ((let171 (= let170 let66)))
  (let ((let172 (ff.mul let44 let55)))
  (let ((let173 (ff.mul let60 let55)))
  (let ((let174 (ff.add let173 let172)))
  (let ((let175 (ff.mul let174 let53)))
  (let ((let176 (= let175 let56)))
  (let ((let177 (ff.mul let60 let2)))
  (let ((let178 l_n1_alt))
  (let ((let179 (ff.add let178 let177)))
  (let ((let180 (ff.mul let129 let179)))
  (let ((let181 (= let180 let44)))
  (let ((let182 (ff.add let105 let60 let82 let53 let51 let178)))
  (let ((let183 (ff.mul let127 let182)))
  (let ((let184 (= let183 let22)))
  (let ((let185 is_zero_inv_n13_alt))
  (let ((let186 (ff.mul let185 let182)))
  (let ((let187 (= let186 let129)))
  (let ((let188 (and let187 let184 let181 let176 let171 let167 let164 let160 let156 let153 let149 let144 let141 let137 let131 let123 let121 let117 let114 let109 let103 let99 let94 let89 let84 let77 let72 let37 let31 let21 let15)))
  (let ((let189 return_n10))
  (let ((let190 mul_n28))
  (let ((let191 (ff.mul let190 let2)))
  (let ((let192 is_zero_n30))
  (let ((let193 (ff.mul let192 let2)))
  (let ((let194 is_zero_n41))
  (let ((let195 is_zero_n20))
  (let ((let196 (ff.mul let195 let2)))
  (let ((let197 is_zero_n39))
  (let ((let198 mul_n42))
  (let ((let199 (ff.add let198 let197 let196 let194 let193 let191 let1)))
  (let ((let200 is_zero_inv_n43))
  (let ((let201 (ff.mul let200 let199)))
  (let ((let202 (= let201 let189)))
  (let ((let203 h_n9))
  (let ((let204 (ff.mul let203 let2)))
  (let ((let205 (ff.add let195 let204)))
  (let ((let206 is_zero_n32))
  (let ((let207 (ff.mul let206 let205)))
  (let ((let208 (= let207 let198)))
  (let ((let209 mul_n27))
  (let ((let210 (ff.mul let209 let2)))
  (let ((let211 mul_n33))
  (let ((let212 mul_n24))
  (let ((let213 k_n3))
  (let ((let214 (ff.mul let213 let2)))
  (let ((let215 (ff.add let214 let212 let204 let211 let210 let1)))
  (let ((let216 (ff.mul let194 let215)))
  (let ((let217 (= let216 let22)))
  (let ((let218 (ff.mul let194 let2)))
  (let ((let219 (ff.add let218 let32)))
  (let ((let220 is_zero_inv_n40))
  (let ((let221 (ff.mul let220 let215)))
  (let ((let222 (= let221 let219)))
  (let ((let223 mul_n35))
  (let ((let224 (ff.mul let223 let2)))
  (let ((let225 d_n6))
  (let ((let226 (ff.mul let225 let2)))
  (let ((let227 mul_n15))
  (let ((let228 (ff.mul let227 let43)))
  (let ((let229 mul_n18))
  (let ((let230 mul_n21))
  (let ((let231 (ff.mul let230 let2)))
  (let ((let232 mul_n36))
  (let ((let233 (ff.mul let232 let2)))
  (let ((let234 e_n4))
  (let ((let235 (ff.mul let234 let2)))
  (let ((let236 i_n7))
  (let ((let237 (ff.mul let236 let43)))
  (let ((let238 mul_n16))
  (let ((let239 (ff.mul let238 let55)))
  (let ((let240 mul_n25))
  (let ((let241 f_n2))
  (let ((let242 j_n5))
  (let ((let243 (ff.mul let242 let43)))
  (let ((let244 mul_n37))
  (let ((let245 (ff.mul let244 let2)))
  (let ((let246 b_n11))
  (let ((let247 (ff.mul let246 let2)))
  (let ((let248 mul_n17))
  (let ((let249 (ff.mul let248 let2)))
  (let ((let250 mul_n26))
  (let ((let251 (ff.mul let250 let2)))
  (let ((let252 (ff.add let251 let195 let249 let247 let245 let243 let241 let240 let239 let237 let235 let233 let212 let231 let229 let228 let204 let226 let224 let38)))
  (let ((let253 (ff.mul let197 let252)))
  (let ((let254 (= let253 let22)))
  (let ((let255 (ff.mul let197 let2)))
  (let ((let256 (ff.add let255 let32)))
  (let ((let257 is_zero_inv_n38))
  (let ((let258 (ff.mul let257 let252)))
  (let ((let259 (= let258 let256)))
  (let ((let260 a_n12))
  (let ((let261 (ff.mul let260 let43)))
  (let ((let262 (ff.mul let241 let2)))
  (let ((let263 (ff.add let251 let235 let212 let230 let262 let229 let261 let240 let226 let32)))
  (let ((let264 g_n0))
  (let ((let265 (ff.mul let264 let263)))
  (let ((let266 (= let265 let244)))
  (let ((let267 (ff.add let247 let32)))
  (let ((let268 (ff.mul let203 let43)))
  (let ((let269 (ff.add let268 let55)))
  (let ((let270 (ff.mul let269 let267)))
  (let ((let271 (= let270 let232)))
  (let ((let272 mul_n34))
  (let ((let273 (ff.add let211 let272 let236 let2)))
  (let ((let274 (ff.add let239 let243 let228 let237 let55)))
  (let ((let275 (ff.mul let274 let273)))
  (let ((let276 (= let275 let223)))
  (let ((let277 (ff.mul let211 let2)))
  (let ((let278 (ff.add let277 let32)))
  (let ((let279 (ff.add let237 let55)))
  (let ((let280 (ff.mul let279 let278)))
  (let ((let281 (= let280 let272)))
  (let ((let282 (ff.mul let229 let2)))
  (let ((let283 (ff.add let234 let282 let225)))
  (let ((let284 (ff.mul let283 let206)))
  (let ((let285 (= let284 let211)))
  (let ((let286 mul_n22))
  (let ((let287 c_n8))
  (let ((let288 (ff.mul let246 let43)))
  (let ((let289 (ff.add let288 let287 let242 let231 let227 let241 let260 let286 let204 let55)))
  (let ((let290 (ff.mul let206 let289)))
  (let ((let291 (= let290 let22)))
  (let ((let292 (ff.mul let206 let2)))
  (let ((let293 (ff.add let292 let32)))
  (let ((let294 is_zero_inv_n31))
  (let ((let295 (ff.mul let294 let289)))
  (let ((let296 (= let295 let293)))
  (let ((let297 (ff.add let241 let260 let248 let213)))
  (let ((let298 (ff.mul let192 let297)))
  (let ((let299 (= let298 let22)))
  (let ((let300 (ff.add let193 let32)))
  (let ((let301 is_zero_inv_n29))
  (let ((let302 (ff.mul let301 let297)))
  (let ((let303 (= let302 let300)))
  (let ((let304 (ff.mul let209 let248)))
  (let ((let305 (= let304 let190)))
  (let ((let306 (ff.mul let240 let2)))
  (let ((let307 (ff.mul let212 let2)))
  (let ((let308 (ff.add let307 let250 let282 let260 let306 let234 let225)))
  (let ((let309 is_zero_n14))
  (let ((let310 (ff.mul let309 let2)))
  (let ((let311 (ff.add let310 let32)))
  (let ((let312 (ff.mul let311 let308)))
  (let ((let313 (= let312 let209)))
  (let ((let314 (ff.add let235 let229 let226 let32)))
  (let ((let315 (ff.mul let240 let55)))
  (let ((let316 (ff.mul let212 let55)))
  (let ((let317 (ff.add let316 let315 let261)))
  (let ((let318 (ff.mul let317 let314)))
  (let ((let319 (= let318 let250)))
  (let ((let320 (ff.mul let212 let43)))
  (let ((let321 (ff.add let320 let55)))
  (let ((let322 (ff.mul let321 let260)))
  (let ((let323 (= let322 let240)))
  (let ((let324 mul_n23))
  (let ((let325 (ff.mul let324 let195)))
  (let ((let326 (= let325 let212)))
  (let ((let327 (ff.mul let286 let2)))
  (let ((let328 (ff.mul let260 let2)))
  (let ((let329 (ff.add let230 let262 let328 let327 let246 let32)))
  (let ((let330 (ff.mul let329 let203)))
  (let ((let331 (= let330 let324)))
  (let ((let332 (ff.add let328 let230 let262 let32)))
  (let ((let333 (ff.mul let246 let55)))
  (let ((let334 (ff.mul let333 let332)))
  (let ((let335 (= let334 let286)))
  (let ((let336 (ff.mul let260 let55)))
  (let ((let337 (ff.mul let336 let241)))
  (let ((let338 (= let337 let230)))
  (let ((let339 (ff.mul let225 let55)))
  (let ((let340 (ff.add let264 let282 let234 let339 let213)))
  (let ((let341 (ff.mul let195 let340)))
  (let ((let342 (= let341 let22)))
  (let ((let343 (ff.add let196 let32)))
  (let ((let344 is_zero_inv_n19))
  (let ((let345 (ff.mul let344 let340)))
  (let ((let346 (= let345 let343)))
  (let ((let347 (ff.mul let234 let55)))
  (let ((let348 (ff.mul let347 let225)))
  (let ((let349 (= let348 let229)))
  (let ((let350 (ff.mul let238 let2)))
  (let ((let351 (ff.add let350 let242 let227 let236)))
  (let ((let352 (ff.mul let351 let267)))
  (let ((let353 (= let352 let248)))
  (let ((let354 (ff.mul let227 let55)))
  (let ((let355 (ff.mul let242 let55)))
  (let ((let356 (ff.add let355 let354)))
  (let ((let357 (ff.mul let356 let236)))
  (let ((let358 (= let357 let238)))
  (let ((let359 (ff.mul let242 let2)))
  (let ((let360 l_n1))
  (let ((let361 (ff.add let360 let359)))
  (let ((let362 (ff.mul let311 let361)))
  (let ((let363 (= let362 let227)))
  (let ((let364 (ff.add let287 let242 let264 let236 let234 let360)))
  (let ((let365 (ff.mul let309 let364)))
  (let ((let366 (= let365 let22)))
  (let ((let367 is_zero_inv_n13))
  (let ((let368 (ff.mul let367 let364)))
  (let ((let369 (= let368 let311)))
  (let ((let370 (and let369 let366 let363 let358 let353 let349 let346 let342 let338 let335 let331 let326 let323 let319 let313 let305 let303 let299 let296 let291 let285 let281 let276 let271 let266 let259 let254 let222 let217 let208 let202)))
  (let ((let371 (= let189 let0)))
  (let ((let372 (not let371)))
  (let ((let373 (= let260 let78)))
  (let ((let374 (= let236 let53)))
  (let ((let375 (= let203 let16)))
  (let ((let376 (= let360 let178)))
  (let ((let377 (= let264 let82)))
  (let ((let378 (= let234 let51)))
  (let ((let379 (= let246 let64)))
  (let ((let380 (= let241 let59)))
  (let ((let381 (= let242 let60)))
  (let ((let382 (= let287 let105)))
  (let ((let383 (= let225 let41)))
  (let ((let384 (= let213 let27)))
  (let ((let385 (and let384 let383 let382 let381 let380 let379 let378 let377 let376 let375 let374 let373)))
  (let ((let386 (and let385 let372 let370 let188)))
  let386
)))))))))))))))))))))))))))))))))))))))))))))))))))))))))))))))))))))))))))))))))))))))))))))))))))))))))))))))))))))))))))))))))))))))))))))))))))))))))))))))))))))))))))))))))))))))))))))))))))))))))))))))))))))))))))))))))))))))))))))))))))))))))))))))))))))))))))))))))))))))))))))))))))))))))))))))))))))))))))))))))))))))))))))))))))))))))))))))))))))))))))))))))))))))))))))))))))
)
(check-sat)
